ATOMIC_SPECIES
C  12.0110 C.upf upf201

NUMERICAL_ORBITAL
C_gga_10au_100Ry_3s3p2d.orb

LATTICE_CONSTANT
1.8897261255

LATTICE_VECTORS
       -0.0000000437        1.7856603561        1.7856603561
        1.7856603561       -0.0000000437        1.7856603561
        1.7856603561        1.7856603561       -0.0000000437

ATOMIC_POSITIONS
Direct

C #label
0.0000   #magnetism
2 #number of atoms
        0.0000000496        0.0000000496        0.0000000496 m 1 1 1
        0.2500000500        0.2500000500        0.2500000500 m 1 1 1
