ATOMIC_SPECIES
C 12.011000 C.upf

NUMERICAL_ORBITAL
C_gga_8au_100Ry_2s2p1d.orb

LATTICE_CONSTANT
1.889726125457828

LATTICE_VECTORS
0.0000000000000000 1.7834999992147145 1.7834999992147145
1.7834999992147145 0.0000000000000000 1.7834999992147145
1.7834999992147145 1.7834999992147145 0.0000000000000000

ATOMIC_POSITIONS
Cartesian_angstrom
C
0.0
2
0.0000000000000000 0.0000000000000000 0.0000000000000000 1 1 1
0.8917500000000000 0.8917500000000000 0.8917500000000000 1 1 1
