ATOMIC_SPECIES
Pt 195.0840 Pt_ONCV_PBE-1.2.upf upf201
C  12.0110 C.upf upf201
O  15.9990 O.upf upf201

NUMERICAL_ORBITAL
Pt_gga_10au_100Ry_6s3p3d2f.orb
C_gga_10au_100Ry_3s3p2d.orb
O_gga_10au_100Ry_3s3p2d1f.orb

LATTICE_CONSTANT
1.8897261255

LATTICE_VECTORS
        5.5437171645        0.0000000000        0.0000000000
        0.0000000000       36.7896391657        0.0000000000
        0.0000000000        0.0000000000        4.8009998959

ATOMIC_POSITIONS
Direct

Pt #label
0.0000   #magnetism
16 #number of atoms
        0.0000000000        0.4077236502        0.0000000000 m 0 0 0
        0.5000001991        0.4077236502        0.0000000000 m 0 0 0
        0.2500000995        0.4077236502        0.5000001991 m 0 0 0
        0.7500002986        0.4077236502        0.5000001991 m 0 0 0
        0.2500000995        0.4692413495        0.1666667330 m 0 0 0
        0.7500002986        0.4692413495        0.1666667330 m 0 0 0
        0.0000000000        0.4692413495        0.6666669321 m 0 0 0
        0.5000001991        0.4692413495        0.6666669321 m 0 0 0
        0.0030511277        0.5323186598        0.3317632718 m 1 1 1
        0.4969492033        0.5323186443        0.3317632885 m 1 1 1
        0.2500001492        0.5332077785        0.8249741946 m 1 1 1
        0.7500001381        0.5311060464        0.8343471672 m 1 1 1
        0.9947092732        0.5948577204        0.9991363634 m 1 1 1
        0.5052910015        0.5948577068        0.9991364185 m 1 1 1
        0.2500001405        0.6002687450        0.4992821276 m 1 1 1
        0.7500001285        0.5942682470        0.4997394881 m 1 1 1

C #label
0.0000   #magnetism
1 #number of atoms
        0.2500001306        0.6504966793        0.4979687744 m 1 1 1

O #label
0.0000   #magnetism
1 #number of atoms
        0.2500000951        0.6817544848        0.4999271817 m 1 1 1
