ATOMIC_SPECIES
Pt 195.084000 Pt_ONCV_PBE-1.2.upf
C 12.011000 C.upf
O 15.999000 O.upf

NUMERICAL_ORBITAL
Pt_gga_8au_100Ry_4s2p2d1f.orb
C_gga_8au_100Ry_2s2p1d.orb
O_gga_6au_100Ry_2s2p1d.orb

LATTICE_CONSTANT
1.889726125457828

LATTICE_VECTORS
5.543717164503 0.000000000000 0.000000000000
0.000000000000 36.789639165670 0.000000000000
0.000000000000 0.000000000000 4.800999895855

ATOMIC_POSITIONS
Cartesian_angstrom
Pt
0.0
16
0.000000000000 15.000000000000 0.000000000000 0 0 0
2.771858582251 15.000000000000 0.000000000000 0 0 0
1.385929291126 15.000000000000 2.400499947928 0 0 0
4.157787873377 15.000000000000 2.400499947928 0 0 0
1.385929291126 17.263213055223 0.800166649309 0 0 0
4.157787873377 17.263213055223 0.800166649309 0 0 0
0.000000000000 17.263213055223 3.200666597237 0 0 0
2.771858582251 17.263213055223 3.200666597237 0 0 0
0.000000000000 19.526426110447 1.600333298618 1 1 1
2.771858582251 19.526426110447 1.600333298618 1 1 1
1.385929291126 19.526426110447 4.000833246546 1 1 1
4.157787873377 19.526426110447 4.000833246546 1 1 1
0.000000000000 21.789639165670 0.000000000000 1 1 1
2.771858582251 21.789639165670 0.000000000000 1 1 1
1.385929291126 21.789639165670 2.400499947928 1 1 1
4.157787873377 21.789639165670 2.400499947928 1 1 1
C
0.0
1
1.385929291126 23.639639165670 2.400499947928 1 1 1
O
0.0
1
1.385929291126 24.789639165670 2.400499947928 1 1 1
