ATOMIC_SPECIES
Ni 58.693400 Ni_ONCV_PBE-1.2.upf
C 12.011000 C.upf
O 15.999000 O.upf

NUMERICAL_ORBITAL
Ni_gga_7au_100Ry_4s2p2d1f.orb
C_gga_8au_100Ry_2s2p1d.orb
O_gga_6au_100Ry_2s2p1d.orb

LATTICE_CONSTANT
1.889726125457828

LATTICE_VECTORS
4.9780317373614373 0.0000000000000000 0.0000000000000000
0.0000000000000000 35.2799999844660093 0.0000000000000000
0.0000000000000000 0.0000000000000000 4.9780317373614373

ATOMIC_POSITIONS
Cartesian_angstrom
Ni
1.000000
16
1.244507934888 15.000000000000 1.244507934888 0 0 0
3.733523804665 15.000000000000 1.244507934888 0 0 0
1.244507934888 15.000000000000 3.733523804665 0 0 0
3.733523804665 15.000000000000 3.733523804665 0 0 0
0.000000000000 16.760000000000 0.000000000000 0 0 0
2.489015869777 16.760000000000 0.000000000000 0 0 0
0.000000000000 16.760000000000 2.489015869777 0 0 0
2.489015869777 16.760000000000 2.489015869777 0 0 0
1.244507934888 18.520000000000 1.244507934888 1 1 1
3.733523804665 18.520000000000 1.244507934888 1 1 1
1.244507934888 18.520000000000 3.733523804665 1 1 1
3.733523804665 18.520000000000 3.733523804665 1 1 1
0.000000000000 20.280000000000 0.000000000000 1 1 1
2.489015869777 20.280000000000 0.000000000000 1 1 1
0.000000000000 20.280000000000 2.489015869777 1 1 1
2.489015869777 20.280000000000 2.489015869777 1 1 1
C
0.000000
1
2.489015869777 22.130000000000 2.489015869777 1 1 1
O
0.000000
1
2.489015869777 23.280000000000 2.489015869777 1 1 1
