ATOMIC_SPECIES
Ni  58.6934 Ni_ONCV_PBE-1.2.upf upf201
C  12.0110 C.upf upf201
O  15.9990 O.upf upf201

NUMERICAL_ORBITAL
Ni_gga_7au_100Ry_4s2p2d1f.orb
C_gga_8au_100Ry_2s2p1d.orb
O_gga_6au_100Ry_2s2p1d.orb

LATTICE_CONSTANT
1.8897261255

LATTICE_VECTORS
        4.9780317374        0.0000000000        0.0000000000
        0.0000000000       35.2799999845        0.0000000000
        0.0000000000        0.0000000000        4.9780317374

ATOMIC_POSITIONS
Direct

Ni #label
1.0000   #magnetism
16 #number of atoms
        0.2500000996        0.4251702375        0.2500000996 m 0 0 0
        0.7500002989        0.4251702375        0.2500000996 m 0 0 0
        0.2500000996        0.4251702375        0.7500002989 m 0 0 0
        0.7500002989        0.4251702375        0.7500002989 m 0 0 0
        0.0000000000        0.4750568787        0.0000000000 m 0 0 0
        0.5000001993        0.4750568787        0.0000000000 m 0 0 0
        0.0000000000        0.4750568787        0.5000001993 m 0 0 0
        0.5000001993        0.4750568787        0.5000001993 m 0 0 0
        0.2513937294        0.5256656235        0.2513919226 m 1 1 1
        0.7486064134        0.5256655845        0.2513919127 m 1 1 1
        0.2513937118        0.5256656936        0.7486082200 m 1 1 1
        0.7486064056        0.5256656621        0.7486082046 m 1 1 1
        0.9999998638        0.5737657538        0.0000004497 m 1 1 1
        0.5000004434        0.5744733730        0.0000004111 m 1 1 1
        0.9999998452        0.5744735553        0.4999998571 m 1 1 1
        0.5000004232        0.5777334824        0.4999999114 m 1 1 1

C #label
0.0000   #magnetism
1 #number of atoms
        0.5000001760        0.6271897901        0.5000001439 m 1 1 1

O #label
0.0000   #magnetism
1 #number of atoms
        0.5000002232        0.6599664356        0.5000002218 m 1 1 1
